c :: WCTIME=5.3219
c :: command line :: ./optimal-finder cvc-add3-carry2-gadget.cnf -greedy
c :: version :: 160
c :: reference filename :: cvc-add3-carry2-gadget.cnf
c :: reference encoding :: 46
c i 2 3 5 7 13 9 18 21 0
c :: reference encoding :: variables :: 20 :: clauses :: 46
c Iteration: 1	 MinCls: 76
c Iteration: 2	 MinCls: 62
c Iteration: 3	 MinCls: 57
c Iteration: 4	 MinCls: 57
c i 2 3 5 7 13 9 18 21 12 15 0
c aux 12 15
c :: optimal encoding :: variables :: 10 :: clauses :: 63
c :: optimal minimal encoding :: 57
p cnf 21 57
-15 -9 0
-15 7 0
-7 9 15 0
-15 5 -12 0
21 -13 -12 0
21 18 -12 0
21 -15 -12 0
-18 13 -21 0
-18 -21 3 0
-18 -21 2 0
-12 5 2 0
-12 5 3 0
-18 -21 5 0
13 -21 15 0
-18 -21 15 0
-21 15 12 0
21 18 -15 0
13 -21 5 0
-13 18 21 0
-2 -3 12 0
-3 -5 12 0
-15 -12 2 0
-5 12 -2 0
21 -13 -15 0
-12 2 3 0
-15 -12 3 0
13 -21 12 0
-18 -21 12 0
13 -21 3 0
13 -21 2 0
-7 -2 15 12 0
9 -2 12 15 0
-13 -7 21 -5 0
18 -7 21 -5 0
-3 -7 15 12 0
9 -3 12 15 0
-13 -3 21 -7 0
-13 -2 21 -7 0
-13 9 21 -5 0
-7 -5 15 12 0
18 9 21 -5 0
-13 -3 21 9 0
18 -3 21 9 0
-13 -2 21 9 0
18 -2 21 9 0
18 -2 21 -7 0
18 -3 21 -7 0
-18 13 15 12 0
-12 5 -9 7 0
9 -5 12 7 0
-12 -9 7 2 0
-12 -9 7 3 0
18 -15 -12 -13 0
-15 5 2 3 0
-7 -3 15 -2 -5 0
9 -3 15 -5 -2 0
3 5 -9 7 2 0
